c Standarized MaxSat Instance
c{
c "sha1sum": "8c8bdb81233afa84307d742daa8ed493f2e1ab86",
c "nvars": 60,
c "ncls": 1200,
c "nhards": 0,
c "nhard_len_stats":
c    { "min": 0, "max": 0, "ave": 0.00,
c      "stddev": 0.00 },
c "nsofts": 1200,
c "nsoft_len_stats":
c    { "min": 2, "max": 2, "ave": 2.00,
c      "stddev": 0.00 },
c "nsoft_wts": 10,
c "soft_wt_stats":
c    { "min": 1, "max": 10, "ave": 5.69,
c      "stddev": 2.81 }
c}
c------------------------------------------------------------
c Generated after 1 tries
c Graph with 60 nodes and 600 edges, Max edges:1770
p wcnf 60 1200 6827
9 1 5 0
9 -1 -5 0
4 1 6 0
4 -1 -6 0
8 1 8 0
8 -1 -8 0
8 1 12 0
8 -1 -12 0
10 1 14 0
10 -1 -14 0
2 1 15 0
2 -1 -15 0
4 1 16 0
4 -1 -16 0
8 1 20 0
8 -1 -20 0
3 1 21 0
3 -1 -21 0
6 1 22 0
6 -1 -22 0
5 1 28 0
5 -1 -28 0
7 1 34 0
7 -1 -34 0
4 1 35 0
4 -1 -35 0
6 1 39 0
6 -1 -39 0
10 1 40 0
10 -1 -40 0
10 1 42 0
10 -1 -42 0
7 1 43 0
7 -1 -43 0
8 1 44 0
8 -1 -44 0
2 1 46 0
2 -1 -46 0
7 1 48 0
7 -1 -48 0
1 1 49 0
1 -1 -49 0
3 1 52 0
3 -1 -52 0
2 1 53 0
2 -1 -53 0
9 1 55 0
9 -1 -55 0
2 1 59 0
2 -1 -59 0
5 2 3 0
5 -2 -3 0
2 2 4 0
2 -2 -4 0
2 2 5 0
2 -2 -5 0
10 2 11 0
10 -2 -11 0
3 2 12 0
3 -2 -12 0
6 2 13 0
6 -2 -13 0
9 2 15 0
9 -2 -15 0
7 2 21 0
7 -2 -21 0
3 2 23 0
3 -2 -23 0
7 2 29 0
7 -2 -29 0
6 2 31 0
6 -2 -31 0
5 2 32 0
5 -2 -32 0
10 2 35 0
10 -2 -35 0
3 2 37 0
3 -2 -37 0
8 2 48 0
8 -2 -48 0
6 2 51 0
6 -2 -51 0
8 2 52 0
8 -2 -52 0
5 2 59 0
5 -2 -59 0
9 3 6 0
9 -3 -6 0
3 3 9 0
3 -3 -9 0
4 3 11 0
4 -3 -11 0
9 3 13 0
9 -3 -13 0
10 3 21 0
10 -3 -21 0
1 3 23 0
1 -3 -23 0
10 3 24 0
10 -3 -24 0
6 3 25 0
6 -3 -25 0
1 3 28 0
1 -3 -28 0
2 3 29 0
2 -3 -29 0
7 3 34 0
7 -3 -34 0
9 3 41 0
9 -3 -41 0
4 3 44 0
4 -3 -44 0
1 3 45 0
1 -3 -45 0
1 3 47 0
1 -3 -47 0
5 3 48 0
5 -3 -48 0
1 3 49 0
1 -3 -49 0
3 3 53 0
3 -3 -53 0
10 3 56 0
10 -3 -56 0
10 3 59 0
10 -3 -59 0
9 3 60 0
9 -3 -60 0
3 4 9 0
3 -4 -9 0
6 4 11 0
6 -4 -11 0
4 4 14 0
4 -4 -14 0
8 4 16 0
8 -4 -16 0
6 4 17 0
6 -4 -17 0
7 4 18 0
7 -4 -18 0
6 4 24 0
6 -4 -24 0
1 4 27 0
1 -4 -27 0
5 4 28 0
5 -4 -28 0
10 4 35 0
10 -4 -35 0
10 4 39 0
10 -4 -39 0
8 4 40 0
8 -4 -40 0
3 4 43 0
3 -4 -43 0
8 4 44 0
8 -4 -44 0
7 4 47 0
7 -4 -47 0
4 4 56 0
4 -4 -56 0
7 4 57 0
7 -4 -57 0
2 5 8 0
2 -5 -8 0
5 5 15 0
5 -5 -15 0
9 5 19 0
9 -5 -19 0
9 5 20 0
9 -5 -20 0
4 5 28 0
4 -5 -28 0
3 5 31 0
3 -5 -31 0
9 5 35 0
9 -5 -35 0
4 5 38 0
4 -5 -38 0
7 5 39 0
7 -5 -39 0
10 5 42 0
10 -5 -42 0
6 5 43 0
6 -5 -43 0
7 5 48 0
7 -5 -48 0
9 5 49 0
9 -5 -49 0
5 5 50 0
5 -5 -50 0
10 5 58 0
10 -5 -58 0
4 6 8 0
4 -6 -8 0
9 6 9 0
9 -6 -9 0
7 6 13 0
7 -6 -13 0
10 6 16 0
10 -6 -16 0
5 6 17 0
5 -6 -17 0
3 6 20 0
3 -6 -20 0
10 6 21 0
10 -6 -21 0
10 6 24 0
10 -6 -24 0
2 6 28 0
2 -6 -28 0
9 6 34 0
9 -6 -34 0
7 6 37 0
7 -6 -37 0
5 6 39 0
5 -6 -39 0
7 6 40 0
7 -6 -40 0
3 6 41 0
3 -6 -41 0
8 6 42 0
8 -6 -42 0
4 6 44 0
4 -6 -44 0
5 6 45 0
5 -6 -45 0
3 6 46 0
3 -6 -46 0
2 6 52 0
2 -6 -52 0
3 6 53 0
3 -6 -53 0
6 6 54 0
6 -6 -54 0
5 6 56 0
5 -6 -56 0
2 6 57 0
2 -6 -57 0
10 7 8 0
10 -7 -8 0
2 7 12 0
2 -7 -12 0
2 7 17 0
2 -7 -17 0
5 7 20 0
5 -7 -20 0
8 7 22 0
8 -7 -22 0
10 7 24 0
10 -7 -24 0
10 7 26 0
10 -7 -26 0
7 7 28 0
7 -7 -28 0
4 7 30 0
4 -7 -30 0
8 7 31 0
8 -7 -31 0
4 7 33 0
4 -7 -33 0
3 7 43 0
3 -7 -43 0
3 7 44 0
3 -7 -44 0
6 7 50 0
6 -7 -50 0
3 7 51 0
3 -7 -51 0
2 7 59 0
2 -7 -59 0
8 7 60 0
8 -7 -60 0
2 8 9 0
2 -8 -9 0
8 8 10 0
8 -8 -10 0
2 8 11 0
2 -8 -11 0
8 8 16 0
8 -8 -16 0
1 8 29 0
1 -8 -29 0
10 8 33 0
10 -8 -33 0
1 8 39 0
1 -8 -39 0
6 8 43 0
6 -8 -43 0
2 8 49 0
2 -8 -49 0
3 8 51 0
3 -8 -51 0
8 8 56 0
8 -8 -56 0
8 8 57 0
8 -8 -57 0
7 8 58 0
7 -8 -58 0
10 8 60 0
10 -8 -60 0
7 9 13 0
7 -9 -13 0
8 9 14 0
8 -9 -14 0
1 9 19 0
1 -9 -19 0
2 9 27 0
2 -9 -27 0
6 9 31 0
6 -9 -31 0
1 9 34 0
1 -9 -34 0
1 9 35 0
1 -9 -35 0
3 9 37 0
3 -9 -37 0
5 9 38 0
5 -9 -38 0
9 9 45 0
9 -9 -45 0
6 9 50 0
6 -9 -50 0
8 9 51 0
8 -9 -51 0
1 9 52 0
1 -9 -52 0
2 9 60 0
2 -9 -60 0
10 10 11 0
10 -10 -11 0
3 10 14 0
3 -10 -14 0
9 10 16 0
9 -10 -16 0
2 10 17 0
2 -10 -17 0
10 10 19 0
10 -10 -19 0
1 10 21 0
1 -10 -21 0
9 10 23 0
9 -10 -23 0
1 10 24 0
1 -10 -24 0
1 10 26 0
1 -10 -26 0
10 10 27 0
10 -10 -27 0
6 10 30 0
6 -10 -30 0
2 10 32 0
2 -10 -32 0
2 10 45 0
2 -10 -45 0
4 10 49 0
4 -10 -49 0
10 10 50 0
10 -10 -50 0
9 10 51 0
9 -10 -51 0
4 10 52 0
4 -10 -52 0
6 10 54 0
6 -10 -54 0
6 11 12 0
6 -11 -12 0
5 11 17 0
5 -11 -17 0
7 11 18 0
7 -11 -18 0
1 11 19 0
1 -11 -19 0
6 11 23 0
6 -11 -23 0
8 11 25 0
8 -11 -25 0
4 11 26 0
4 -11 -26 0
10 11 29 0
10 -11 -29 0
6 11 31 0
6 -11 -31 0
9 11 32 0
9 -11 -32 0
8 11 33 0
8 -11 -33 0
7 11 34 0
7 -11 -34 0
1 11 35 0
1 -11 -35 0
8 11 39 0
8 -11 -39 0
9 11 43 0
9 -11 -43 0
10 11 44 0
10 -11 -44 0
9 11 45 0
9 -11 -45 0
9 11 47 0
9 -11 -47 0
10 11 49 0
10 -11 -49 0
8 11 52 0
8 -11 -52 0
10 11 53 0
10 -11 -53 0
10 11 54 0
10 -11 -54 0
7 11 57 0
7 -11 -57 0
5 11 60 0
5 -11 -60 0
2 12 17 0
2 -12 -17 0
9 12 21 0
9 -12 -21 0
9 12 22 0
9 -12 -22 0
1 12 30 0
1 -12 -30 0
7 12 32 0
7 -12 -32 0
3 12 33 0
3 -12 -33 0
7 12 42 0
7 -12 -42 0
3 12 44 0
3 -12 -44 0
8 12 49 0
8 -12 -49 0
4 12 50 0
4 -12 -50 0
4 12 51 0
4 -12 -51 0
3 12 54 0
3 -12 -54 0
1 12 55 0
1 -12 -55 0
7 12 57 0
7 -12 -57 0
3 12 59 0
3 -12 -59 0
7 13 14 0
7 -13 -14 0
6 13 15 0
6 -13 -15 0
10 13 17 0
10 -13 -17 0
3 13 26 0
3 -13 -26 0
6 13 31 0
6 -13 -31 0
8 13 40 0
8 -13 -40 0
2 13 41 0
2 -13 -41 0
5 13 42 0
5 -13 -42 0
6 13 44 0
6 -13 -44 0
10 13 46 0
10 -13 -46 0
5 13 47 0
5 -13 -47 0
4 13 50 0
4 -13 -50 0
9 13 51 0
9 -13 -51 0
5 13 55 0
5 -13 -55 0
1 13 56 0
1 -13 -56 0
4 13 58 0
4 -13 -58 0
6 14 16 0
6 -14 -16 0
9 14 21 0
9 -14 -21 0
3 14 22 0
3 -14 -22 0
7 14 25 0
7 -14 -25 0
5 14 32 0
5 -14 -32 0
5 14 33 0
5 -14 -33 0
4 14 34 0
4 -14 -34 0
8 14 36 0
8 -14 -36 0
2 14 37 0
2 -14 -37 0
7 14 42 0
7 -14 -42 0
1 14 45 0
1 -14 -45 0
5 14 49 0
5 -14 -49 0
7 14 57 0
7 -14 -57 0
7 14 59 0
7 -14 -59 0
7 15 16 0
7 -15 -16 0
4 15 19 0
4 -15 -19 0
2 15 23 0
2 -15 -23 0
7 15 24 0
7 -15 -24 0
7 15 25 0
7 -15 -25 0
8 15 29 0
8 -15 -29 0
4 15 31 0
4 -15 -31 0
8 15 38 0
8 -15 -38 0
3 15 42 0
3 -15 -42 0
10 15 43 0
10 -15 -43 0
7 15 44 0
7 -15 -44 0
7 15 49 0
7 -15 -49 0
3 15 54 0
3 -15 -54 0
6 15 58 0
6 -15 -58 0
1 15 60 0
1 -15 -60 0
3 16 17 0
3 -16 -17 0
9 16 24 0
9 -16 -24 0
7 16 30 0
7 -16 -30 0
1 16 31 0
1 -16 -31 0
2 16 39 0
2 -16 -39 0
4 16 40 0
4 -16 -40 0
6 16 42 0
6 -16 -42 0
6 16 60 0
6 -16 -60 0
7 17 18 0
7 -17 -18 0
3 17 21 0
3 -17 -21 0
8 17 26 0
8 -17 -26 0
3 17 31 0
3 -17 -31 0
4 17 32 0
4 -17 -32 0
2 17 34 0
2 -17 -34 0
10 17 39 0
10 -17 -39 0
1 17 43 0
1 -17 -43 0
9 17 44 0
9 -17 -44 0
4 17 45 0
4 -17 -45 0
2 17 49 0
2 -17 -49 0
5 17 50 0
5 -17 -50 0
10 17 51 0
10 -17 -51 0
10 17 53 0
10 -17 -53 0
8 17 54 0
8 -17 -54 0
7 17 55 0
7 -17 -55 0
2 18 19 0
2 -18 -19 0
7 18 24 0
7 -18 -24 0
4 18 33 0
4 -18 -33 0
8 18 38 0
8 -18 -38 0
10 18 40 0
10 -18 -40 0
10 18 46 0
10 -18 -46 0
9 18 48 0
9 -18 -48 0
3 18 52 0
3 -18 -52 0
8 18 53 0
8 -18 -53 0
6 18 54 0
6 -18 -54 0
3 19 21 0
3 -19 -21 0
10 19 23 0
10 -19 -23 0
10 19 25 0
10 -19 -25 0
9 19 26 0
9 -19 -26 0
5 19 31 0
5 -19 -31 0
6 19 33 0
6 -19 -33 0
2 19 41 0
2 -19 -41 0
3 19 44 0
3 -19 -44 0
9 19 51 0
9 -19 -51 0
5 19 52 0
5 -19 -52 0
5 19 59 0
5 -19 -59 0
9 20 21 0
9 -20 -21 0
5 20 28 0
5 -20 -28 0
3 20 30 0
3 -20 -30 0
2 20 31 0
2 -20 -31 0
7 20 32 0
7 -20 -32 0
8 20 36 0
8 -20 -36 0
2 20 38 0
2 -20 -38 0
7 20 39 0
7 -20 -39 0
5 20 45 0
5 -20 -45 0
9 20 52 0
9 -20 -52 0
8 20 56 0
8 -20 -56 0
2 20 57 0
2 -20 -57 0
3 20 59 0
3 -20 -59 0
5 21 23 0
5 -21 -23 0
2 21 25 0
2 -21 -25 0
2 21 26 0
2 -21 -26 0
4 21 30 0
4 -21 -30 0
4 21 32 0
4 -21 -32 0
10 21 33 0
10 -21 -33 0
10 21 34 0
10 -21 -34 0
7 21 38 0
7 -21 -38 0
9 21 40 0
9 -21 -40 0
9 21 42 0
9 -21 -42 0
5 21 44 0
5 -21 -44 0
4 21 53 0
4 -21 -53 0
4 21 57 0
4 -21 -57 0
7 21 58 0
7 -21 -58 0
7 22 24 0
7 -22 -24 0
3 22 25 0
3 -22 -25 0
2 22 30 0
2 -22 -30 0
1 22 35 0
1 -22 -35 0
2 22 37 0
2 -22 -37 0
7 22 39 0
7 -22 -39 0
4 22 40 0
4 -22 -40 0
3 22 41 0
3 -22 -41 0
4 22 44 0
4 -22 -44 0
1 22 45 0
1 -22 -45 0
5 22 47 0
5 -22 -47 0
10 22 49 0
10 -22 -49 0
6 22 54 0
6 -22 -54 0
3 22 57 0
3 -22 -57 0
7 22 58 0
7 -22 -58 0
8 22 60 0
8 -22 -60 0
5 23 30 0
5 -23 -30 0
2 23 33 0
2 -23 -33 0
9 23 37 0
9 -23 -37 0
7 23 40 0
7 -23 -40 0
6 23 44 0
6 -23 -44 0
3 23 48 0
3 -23 -48 0
6 23 50 0
6 -23 -50 0
5 23 54 0
5 -23 -54 0
9 23 57 0
9 -23 -57 0
4 23 59 0
4 -23 -59 0
3 24 25 0
3 -24 -25 0
4 24 30 0
4 -24 -30 0
8 24 31 0
8 -24 -31 0
7 24 33 0
7 -24 -33 0
10 24 34 0
10 -24 -34 0
4 24 43 0
4 -24 -43 0
9 24 45 0
9 -24 -45 0
2 24 47 0
2 -24 -47 0
5 24 49 0
5 -24 -49 0
1 24 52 0
1 -24 -52 0
8 24 56 0
8 -24 -56 0
8 24 57 0
8 -24 -57 0
3 24 59 0
3 -24 -59 0
2 25 27 0
2 -25 -27 0
9 25 29 0
9 -25 -29 0
8 25 33 0
8 -25 -33 0
1 25 35 0
1 -25 -35 0
5 25 38 0
5 -25 -38 0
10 25 40 0
10 -25 -40 0
8 25 42 0
8 -25 -42 0
3 25 44 0
3 -25 -44 0
5 25 47 0
5 -25 -47 0
9 25 49 0
9 -25 -49 0
1 25 50 0
1 -25 -50 0
1 25 52 0
1 -25 -52 0
4 25 53 0
4 -25 -53 0
4 25 54 0
4 -25 -54 0
7 25 55 0
7 -25 -55 0
9 25 57 0
9 -25 -57 0
2 25 60 0
2 -25 -60 0
1 26 28 0
1 -26 -28 0
1 26 30 0
1 -26 -30 0
5 26 32 0
5 -26 -32 0
8 26 33 0
8 -26 -33 0
7 26 36 0
7 -26 -36 0
5 26 48 0
5 -26 -48 0
2 26 49 0
2 -26 -49 0
6 27 28 0
6 -27 -28 0
6 27 35 0
6 -27 -35 0
6 27 36 0
6 -27 -36 0
6 27 38 0
6 -27 -38 0
4 27 39 0
4 -27 -39 0
4 27 40 0
4 -27 -40 0
9 27 47 0
9 -27 -47 0
5 27 52 0
5 -27 -52 0
2 27 53 0
2 -27 -53 0
7 27 54 0
7 -27 -54 0
6 27 56 0
6 -27 -56 0
7 27 57 0
7 -27 -57 0
6 27 58 0
6 -27 -58 0
3 28 29 0
3 -28 -29 0
9 28 31 0
9 -28 -31 0
1 28 33 0
1 -28 -33 0
1 28 35 0
1 -28 -35 0
10 28 36 0
10 -28 -36 0
2 28 40 0
2 -28 -40 0
5 28 43 0
5 -28 -43 0
3 28 45 0
3 -28 -45 0
9 28 46 0
9 -28 -46 0
3 28 48 0
3 -28 -48 0
4 28 54 0
4 -28 -54 0
9 28 59 0
9 -28 -59 0
4 29 31 0
4 -29 -31 0
9 29 41 0
9 -29 -41 0
7 29 43 0
7 -29 -43 0
1 29 44 0
1 -29 -44 0
3 29 46 0
3 -29 -46 0
8 29 51 0
8 -29 -51 0
7 29 54 0
7 -29 -54 0
9 30 33 0
9 -30 -33 0
4 30 34 0
4 -30 -34 0
3 30 36 0
3 -30 -36 0
2 30 41 0
2 -30 -41 0
7 30 42 0
7 -30 -42 0
2 30 48 0
2 -30 -48 0
7 30 56 0
7 -30 -56 0
8 30 57 0
8 -30 -57 0
8 30 60 0
8 -30 -60 0
3 31 32 0
3 -31 -32 0
5 31 34 0
5 -31 -34 0
4 31 38 0
4 -31 -38 0
5 31 40 0
5 -31 -40 0
3 31 41 0
3 -31 -41 0
4 31 43 0
4 -31 -43 0
6 31 46 0
6 -31 -46 0
2 31 49 0
2 -31 -49 0
6 31 50 0
6 -31 -50 0
1 31 51 0
1 -31 -51 0
4 31 53 0
4 -31 -53 0
4 31 54 0
4 -31 -54 0
4 31 58 0
4 -31 -58 0
8 31 59 0
8 -31 -59 0
3 32 33 0
3 -32 -33 0
7 32 34 0
7 -32 -34 0
6 32 38 0
6 -32 -38 0
10 32 40 0
10 -32 -40 0
7 32 42 0
7 -32 -42 0
9 32 45 0
9 -32 -45 0
7 32 47 0
7 -32 -47 0
4 32 48 0
4 -32 -48 0
7 32 49 0
7 -32 -49 0
1 32 51 0
1 -32 -51 0
6 32 52 0
6 -32 -52 0
9 32 53 0
9 -32 -53 0
7 32 55 0
7 -32 -55 0
7 32 60 0
7 -32 -60 0
6 33 35 0
6 -33 -35 0
5 33 40 0
5 -33 -40 0
4 33 43 0
4 -33 -43 0
8 33 45 0
8 -33 -45 0
9 33 50 0
9 -33 -50 0
7 33 53 0
7 -33 -53 0
2 33 54 0
2 -33 -54 0
1 33 59 0
1 -33 -59 0
1 34 37 0
1 -34 -37 0
7 34 39 0
7 -34 -39 0
2 34 40 0
2 -34 -40 0
7 34 46 0
7 -34 -46 0
8 34 49 0
8 -34 -49 0
6 34 50 0
6 -34 -50 0
1 34 54 0
1 -34 -54 0
1 34 57 0
1 -34 -57 0
4 34 58 0
4 -34 -58 0
3 35 38 0
3 -35 -38 0
7 35 41 0
7 -35 -41 0
9 35 42 0
9 -35 -42 0
2 35 43 0
2 -35 -43 0
4 35 45 0
4 -35 -45 0
7 35 51 0
7 -35 -51 0
9 35 52 0
9 -35 -52 0
7 35 53 0
7 -35 -53 0
4 35 54 0
4 -35 -54 0
9 35 60 0
9 -35 -60 0
2 36 40 0
2 -36 -40 0
2 36 49 0
2 -36 -49 0
6 36 50 0
6 -36 -50 0
9 36 51 0
9 -36 -51 0
7 36 56 0
7 -36 -56 0
10 36 57 0
10 -36 -57 0
2 36 59 0
2 -36 -59 0
4 36 60 0
4 -36 -60 0
8 37 39 0
8 -37 -39 0
9 37 41 0
9 -37 -41 0
6 37 45 0
6 -37 -45 0
8 37 46 0
8 -37 -46 0
10 37 51 0
10 -37 -51 0
3 37 53 0
3 -37 -53 0
10 37 54 0
10 -37 -54 0
6 37 57 0
6 -37 -57 0
10 38 40 0
10 -38 -40 0
5 38 43 0
5 -38 -43 0
6 38 45 0
6 -38 -45 0
10 38 50 0
10 -38 -50 0
8 38 51 0
8 -38 -51 0
9 38 56 0
9 -38 -56 0
6 38 57 0
6 -38 -57 0
7 38 58 0
7 -38 -58 0
10 38 60 0
10 -38 -60 0
10 39 44 0
10 -39 -44 0
4 39 45 0
4 -39 -45 0
9 39 49 0
9 -39 -49 0
6 39 51 0
6 -39 -51 0
7 39 55 0
7 -39 -55 0
8 39 57 0
8 -39 -57 0
8 39 58 0
8 -39 -58 0
8 40 41 0
8 -40 -41 0
3 40 42 0
3 -40 -42 0
7 40 45 0
7 -40 -45 0
5 40 51 0
5 -40 -51 0
2 40 56 0
2 -40 -56 0
8 40 60 0
8 -40 -60 0
9 41 43 0
9 -41 -43 0
9 41 44 0
9 -41 -44 0
7 41 45 0
7 -41 -45 0
5 41 50 0
5 -41 -50 0
7 41 51 0
7 -41 -51 0
6 41 57 0
6 -41 -57 0
7 42 45 0
7 -42 -45 0
6 42 47 0
6 -42 -47 0
2 42 48 0
2 -42 -48 0
6 42 49 0
6 -42 -49 0
1 42 51 0
1 -42 -51 0
8 42 57 0
8 -42 -57 0
6 42 58 0
6 -42 -58 0
9 43 44 0
9 -43 -44 0
6 43 45 0
6 -43 -45 0
2 43 47 0
2 -43 -47 0
5 43 49 0
5 -43 -49 0
6 43 52 0
6 -43 -52 0
1 43 54 0
1 -43 -54 0
9 44 45 0
9 -44 -45 0
4 44 50 0
4 -44 -50 0
7 44 56 0
7 -44 -56 0
5 44 58 0
5 -44 -58 0
2 44 60 0
2 -44 -60 0
5 45 48 0
5 -45 -48 0
3 45 52 0
3 -45 -52 0
5 45 60 0
5 -45 -60 0
1 46 47 0
1 -46 -47 0
8 46 48 0
8 -46 -48 0
6 46 54 0
6 -46 -54 0
9 46 57 0
9 -46 -57 0
6 46 60 0
6 -46 -60 0
5 47 49 0
5 -47 -49 0
5 47 50 0
5 -47 -50 0
10 47 51 0
10 -47 -51 0
1 47 54 0
1 -47 -54 0
1 48 49 0
1 -48 -49 0
7 48 51 0
7 -48 -51 0
6 48 55 0
6 -48 -55 0
3 48 58 0
3 -48 -58 0
3 48 59 0
3 -48 -59 0
7 49 52 0
7 -49 -52 0
10 49 56 0
10 -49 -56 0
8 49 58 0
8 -49 -58 0
5 50 51 0
5 -50 -51 0
5 50 52 0
5 -50 -52 0
9 50 53 0
9 -50 -53 0
10 50 54 0
10 -50 -54 0
10 51 53 0
10 -51 -53 0
9 51 56 0
9 -51 -56 0
8 51 59 0
8 -51 -59 0
4 51 60 0
4 -51 -60 0
6 52 53 0
6 -52 -53 0
3 52 59 0
3 -52 -59 0
5 53 54 0
5 -53 -54 0
10 53 59 0
10 -53 -59 0
5 53 60 0
5 -53 -60 0
9 54 55 0
9 -54 -55 0
10 54 57 0
10 -54 -57 0
2 54 60 0
2 -54 -60 0
5 55 58 0
5 -55 -58 0
8 55 59 0
8 -55 -59 0
8 55 60 0
8 -55 -60 0
10 56 58 0
10 -56 -58 0
3 56 60 0
3 -56 -60 0
